NAME : portgen-50-303
COMMENT : portgen N=50, seed=303
TYPE : TSP
DIMENSION : 50
EDGE_WEIGHT_TYPE : EUC_2D
NODE_COORD_SECTION
1 983 1146
2 2879 556
3 1486 1993
4 2700 1853
5 1617 1630
6 93 2945
7 3024 73
8 116 2754
9 2727 794
10 1748 2584
11 709 545
12 2230 1542
13 1396 2746
14 320 778
15 1645 1875
16 863 1048
17 686 2230
18 1902 2357
19 1007 2253
20 1360 1517
21 2658 979
22 889 1030
23 2130 2876
24 2961 915
25 2043 2998
26 2962 2670
27 1676 2049
28 2913 3098
29 460 649
30 1816 2291
31 985 446
32 492 99
33 2134 2277
34 2055 1993
35 1106 402
36 2955 1811
37 1913 1912
38 2785 1201
39 2032 180
40 1791 1460
41 2286 2834
42 2124 2517
43 889 416
44 556 587
45 95 2788
46 302 2176
47 1147 958
48 1725 847
49 2228 2139
50 1407 928
